\ Model compact
\ LP format - for model browsing. Use MPS format to capture full model detail.
Minimize
  C
Subject To
 ord(0,1): - x(0,1) + x(0,2) >= 7
 ord(0,2): x(0,0) - x(0,2) >= 7
 ord(1,1): x(1,0) - x(1,1) >= 4
 ord(1,2): - x(1,0) + x(1,2) >= 3
 ord(2,1): - x(2,1) + x(2,2) >= 7
 ord(2,2): x(2,0) - x(2,2) >= 6
 triangle2(0,1,0): y(0,1,0) + y(1,0,0) = 1
 triangle2(0,1,1): y(0,1,1) + y(1,0,1) = 1
 triangle2(0,1,2): y(0,1,2) + y(1,0,2) = 1
 triangle2(0,2,0): y(0,2,0) + y(2,0,0) = 1
 triangle2(0,2,1): y(0,2,1) + y(2,0,1) = 1
 triangle2(0,2,2): y(0,2,2) + y(2,0,2) = 1
 triangle2(1,2,0): y(1,2,0) + y(2,1,0) = 1
 triangle2(1,2,1): y(1,2,1) + y(2,1,1) = 1
 triangle2(1,2,2): y(1,2,2) + y(2,1,2) = 1
 MCLinV(0,1,0): - x(0,0) + v(0,1,0)p - v(0,1,0)n + x(1,0) = -3
 MCLinV(1,0,0): x(0,0) + v(1,0,0)p - v(1,0,0)n - x(1,0) = -1
 MCLin1(0,1,0): u(0,1,0)p - u(0,1,0)n >= -0
 MCLin2(0,1,0): 14 y(1,0,0) + u(0,1,0)p - u(0,1,0)n >= -0
 MCLin3(0,1,0): - 27 y(1,0,0) - v(0,1,0)p + v(0,1,0)n + u(0,1,0)p
   - u(0,1,0)n >= -27
 MCLin4(0,1,0): - 27 y(1,0,0) + u(0,1,0)p - u(0,1,0)n <= -0
 MCLin5(0,1,0): 14 y(1,0,0) - v(0,1,0)p + v(0,1,0)n + u(0,1,0)p - u(0,1,0)n
   <= 14
 MCLin6(1,0,0): u(1,0,0)p - u(1,0,0)n >= -0
 MCLin7(1,0,0): 31 y(0,1,0) + u(1,0,0)p - u(1,0,0)n >= -0
 MCLin8(1,0,0): - 10 y(0,1,0) - v(1,0,0)p + v(1,0,0)n + u(1,0,0)p
   - u(1,0,0)n >= -10
 MCLin9(1,0,0): - 10 y(0,1,0) + u(1,0,0)p - u(1,0,0)n <= -0
 MCLin10(1,0,0): 31 y(0,1,0) - v(1,0,0)p + v(1,0,0)n + u(1,0,0)p
   - u(1,0,0)n <= 31
 MCLinV(0,1,1): - x(0,1) + v(0,1,1)p - v(0,1,1)n + x(1,1) = -4
 MCLinV(1,0,1): x(0,1) + v(1,0,1)p - v(1,0,1)n - x(1,1) = -7
 MCLin1(0,1,1): u(0,1,1)p - u(0,1,1)n >= -0
 MCLin2(0,1,1): 25 y(1,0,1) + u(0,1,1)p - u(0,1,1)n >= -0
 MCLin3(0,1,1): - 16 y(1,0,1) - v(0,1,1)p + v(0,1,1)n + u(0,1,1)p
   - u(0,1,1)n >= -16
 MCLin4(0,1,1): - 16 y(1,0,1) + u(0,1,1)p - u(0,1,1)n <= -0
 MCLin5(0,1,1): 25 y(1,0,1) - v(0,1,1)p + v(0,1,1)n + u(0,1,1)p - u(0,1,1)n
   <= 25
 MCLin6(1,0,1): u(1,0,1)p - u(1,0,1)n >= -0
 MCLin7(1,0,1): 27 y(0,1,1) + u(1,0,1)p - u(1,0,1)n >= -0
 MCLin8(1,0,1): - 14 y(0,1,1) - v(1,0,1)p + v(1,0,1)n + u(1,0,1)p
   - u(1,0,1)n >= -14
 MCLin9(1,0,1): - 14 y(0,1,1) + u(1,0,1)p - u(1,0,1)n <= -0
 MCLin10(1,0,1): 27 y(0,1,1) - v(1,0,1)p + v(1,0,1)n + u(1,0,1)p
   - u(1,0,1)n <= 27
 MCLinV(0,1,2): - x(0,2) + v(0,1,2)p - v(0,1,2)n + x(1,2) = -7
 MCLinV(1,0,2): x(0,2) + v(1,0,2)p - v(1,0,2)n - x(1,2) = -7
 MCLin1(0,1,2): u(0,1,2)p - u(0,1,2)n >= -0
 MCLin2(0,1,2): 28 y(1,0,2) + u(0,1,2)p - u(0,1,2)n >= -0
 MCLin3(0,1,2): - 13 y(1,0,2) - v(0,1,2)p + v(0,1,2)n + u(0,1,2)p
   - u(0,1,2)n >= -13
 MCLin4(0,1,2): - 13 y(1,0,2) + u(0,1,2)p - u(0,1,2)n <= -0
 MCLin5(0,1,2): 28 y(1,0,2) - v(0,1,2)p + v(0,1,2)n + u(0,1,2)p - u(0,1,2)n
   <= 28
 MCLin6(1,0,2): u(1,0,2)p - u(1,0,2)n >= -0
 MCLin7(1,0,2): 27 y(0,1,2) + u(1,0,2)p - u(1,0,2)n >= -0
 MCLin8(1,0,2): - 14 y(0,1,2) - v(1,0,2)p + v(1,0,2)n + u(1,0,2)p
   - u(1,0,2)n >= -14
 MCLin9(1,0,2): - 14 y(0,1,2) + u(1,0,2)p - u(1,0,2)n <= -0
 MCLin10(1,0,2): 27 y(0,1,2) - v(1,0,2)p + v(1,0,2)n + u(1,0,2)p
   - u(1,0,2)n <= 27
 MCLinV(0,2,0): - x(0,0) + v(0,2,0)p - v(0,2,0)n + x(2,0) = -2
 MCLinV(2,0,0): x(0,0) + v(2,0,0)p - v(2,0,0)n - x(2,0) = -1
 MCLin1(0,2,0): u(0,2,0)p - u(0,2,0)n >= -0
 MCLin2(0,2,0): 21 y(2,0,0) + u(0,2,0)p - u(0,2,0)n >= -0
 MCLin3(0,2,0): - 19 y(2,0,0) - v(0,2,0)p + v(0,2,0)n + u(0,2,0)p
   - u(0,2,0)n >= -19
 MCLin4(0,2,0): - 19 y(2,0,0) + u(0,2,0)p - u(0,2,0)n <= -0
 MCLin5(0,2,0): 21 y(2,0,0) - v(0,2,0)p + v(0,2,0)n + u(0,2,0)p - u(0,2,0)n
   <= 21
 MCLin6(2,0,0): u(2,0,0)p - u(2,0,0)n >= -0
 MCLin7(2,0,0): 22 y(0,2,0) + u(2,0,0)p - u(2,0,0)n >= -0
 MCLin8(2,0,0): - 18 y(0,2,0) - v(2,0,0)p + v(2,0,0)n + u(2,0,0)p
   - u(2,0,0)n >= -18
 MCLin9(2,0,0): - 18 y(0,2,0) + u(2,0,0)p - u(2,0,0)n <= -0
 MCLin10(2,0,0): 22 y(0,2,0) - v(2,0,0)p + v(2,0,0)n + u(2,0,0)p
   - u(2,0,0)n <= 22
 MCLinV(0,2,1): - x(0,1) + v(0,2,1)p - v(0,2,1)n + x(2,1) = -7
 MCLinV(2,0,1): x(0,1) + v(2,0,1)p - v(2,0,1)n - x(2,1) = -7
 MCLin1(0,2,1): u(0,2,1)p - u(0,2,1)n >= -0
 MCLin2(0,2,1): 27 y(2,0,1) + u(0,2,1)p - u(0,2,1)n >= -0
 MCLin3(0,2,1): - 13 y(2,0,1) - v(0,2,1)p + v(0,2,1)n + u(0,2,1)p
   - u(0,2,1)n >= -13
 MCLin4(0,2,1): - 13 y(2,0,1) + u(0,2,1)p - u(0,2,1)n <= -0
 MCLin5(0,2,1): 27 y(2,0,1) - v(0,2,1)p + v(0,2,1)n + u(0,2,1)p - u(0,2,1)n
   <= 27
 MCLin6(2,0,1): u(2,0,1)p - u(2,0,1)n >= -0
 MCLin7(2,0,1): 27 y(0,2,1) + u(2,0,1)p - u(2,0,1)n >= -0
 MCLin8(2,0,1): - 13 y(0,2,1) - v(2,0,1)p + v(2,0,1)n + u(2,0,1)p
   - u(2,0,1)n >= -13
 MCLin9(2,0,1): - 13 y(0,2,1) + u(2,0,1)p - u(2,0,1)n <= -0
 MCLin10(2,0,1): 27 y(0,2,1) - v(2,0,1)p + v(2,0,1)n + u(2,0,1)p
   - u(2,0,1)n <= 27
 MCLinV(0,2,2): - x(0,2) + v(0,2,2)p - v(0,2,2)n + x(2,2) = -6
 MCLinV(2,0,2): x(0,2) + v(2,0,2)p - v(2,0,2)n - x(2,2) = -7
 MCLin1(0,2,2): u(0,2,2)p - u(0,2,2)n >= -0
 MCLin2(0,2,2): 26 y(2,0,2) + u(0,2,2)p - u(0,2,2)n >= -0
 MCLin3(0,2,2): - 14 y(2,0,2) - v(0,2,2)p + v(0,2,2)n + u(0,2,2)p
   - u(0,2,2)n >= -14
 MCLin4(0,2,2): - 14 y(2,0,2) + u(0,2,2)p - u(0,2,2)n <= -0
 MCLin5(0,2,2): 26 y(2,0,2) - v(0,2,2)p + v(0,2,2)n + u(0,2,2)p - u(0,2,2)n
   <= 26
 MCLin6(2,0,2): u(2,0,2)p - u(2,0,2)n >= -0
 MCLin7(2,0,2): 27 y(0,2,2) + u(2,0,2)p - u(2,0,2)n >= -0
 MCLin8(2,0,2): - 13 y(0,2,2) - v(2,0,2)p + v(2,0,2)n + u(2,0,2)p
   - u(2,0,2)n >= -13
 MCLin9(2,0,2): - 13 y(0,2,2) + u(2,0,2)p - u(2,0,2)n <= -0
 MCLin10(2,0,2): 27 y(0,2,2) - v(2,0,2)p + v(2,0,2)n + u(2,0,2)p
   - u(2,0,2)n <= 27
 MCLinV(1,2,0): - x(1,0) + v(1,2,0)p - v(1,2,0)n + x(2,0) = -2
 MCLinV(2,1,0): x(1,0) + v(2,1,0)p - v(2,1,0)n - x(2,0) = -3
 MCLin1(1,2,0): u(1,2,0)p - u(1,2,0)n >= -0
 MCLin2(1,2,0): 31 y(2,1,0) + u(1,2,0)p - u(1,2,0)n >= -0
 MCLin3(1,2,0): - 10 y(2,1,0) - v(1,2,0)p + v(1,2,0)n + u(1,2,0)p
   - u(1,2,0)n >= -10
 MCLin4(1,2,0): - 10 y(2,1,0) + u(1,2,0)p - u(1,2,0)n <= -0
 MCLin5(1,2,0): 31 y(2,1,0) - v(1,2,0)p + v(1,2,0)n + u(1,2,0)p - u(1,2,0)n
   <= 31
 MCLin6(2,1,0): u(2,1,0)p - u(2,1,0)n >= -0
 MCLin7(2,1,0): 15 y(1,2,0) + u(2,1,0)p - u(2,1,0)n >= -0
 MCLin8(2,1,0): - 26 y(1,2,0) - v(2,1,0)p + v(2,1,0)n + u(2,1,0)p
   - u(2,1,0)n >= -26
 MCLin9(2,1,0): - 26 y(1,2,0) + u(2,1,0)p - u(2,1,0)n <= -0
 MCLin10(2,1,0): 15 y(1,2,0) - v(2,1,0)p + v(2,1,0)n + u(2,1,0)p
   - u(2,1,0)n <= 15
 MCLinV(1,2,1): - x(1,1) + v(1,2,1)p - v(1,2,1)n + x(2,1) = -7
 MCLinV(2,1,1): x(1,1) + v(2,1,1)p - v(2,1,1)n - x(2,1) = -4
 MCLin1(1,2,1): u(1,2,1)p - u(1,2,1)n >= -0
 MCLin2(1,2,1): 27 y(2,1,1) + u(1,2,1)p - u(1,2,1)n >= -0
 MCLin3(1,2,1): - 14 y(2,1,1) - v(1,2,1)p + v(1,2,1)n + u(1,2,1)p
   - u(1,2,1)n >= -14
 MCLin4(1,2,1): - 14 y(2,1,1) + u(1,2,1)p - u(1,2,1)n <= -0
 MCLin5(1,2,1): 27 y(2,1,1) - v(1,2,1)p + v(1,2,1)n + u(1,2,1)p - u(1,2,1)n
   <= 27
 MCLin6(2,1,1): u(2,1,1)p - u(2,1,1)n >= -0
 MCLin7(2,1,1): 25 y(1,2,1) + u(2,1,1)p - u(2,1,1)n >= -0
 MCLin8(2,1,1): - 16 y(1,2,1) - v(2,1,1)p + v(2,1,1)n + u(2,1,1)p
   - u(2,1,1)n >= -16
 MCLin9(2,1,1): - 16 y(1,2,1) + u(2,1,1)p - u(2,1,1)n <= -0
 MCLin10(2,1,1): 25 y(1,2,1) - v(2,1,1)p + v(2,1,1)n + u(2,1,1)p
   - u(2,1,1)n <= 25
 MCLinV(1,2,2): - x(1,2) + v(1,2,2)p - v(1,2,2)n + x(2,2) = -6
 MCLinV(2,1,2): x(1,2) + v(2,1,2)p - v(2,1,2)n - x(2,2) = -7
 MCLin1(1,2,2): u(1,2,2)p - u(1,2,2)n >= -0
 MCLin2(1,2,2): 26 y(2,1,2) + u(1,2,2)p - u(1,2,2)n >= -0
 MCLin3(1,2,2): - 15 y(2,1,2) - v(1,2,2)p + v(1,2,2)n + u(1,2,2)p
   - u(1,2,2)n >= -15
 MCLin4(1,2,2): - 15 y(2,1,2) + u(1,2,2)p - u(1,2,2)n <= -0
 MCLin5(1,2,2): 26 y(2,1,2) - v(1,2,2)p + v(1,2,2)n + u(1,2,2)p - u(1,2,2)n
   <= 26
 MCLin6(2,1,2): u(2,1,2)p - u(2,1,2)n >= -0
 MCLin7(2,1,2): 28 y(1,2,2) + u(2,1,2)p - u(2,1,2)n >= -0
 MCLin8(2,1,2): - 13 y(1,2,2) - v(2,1,2)p + v(2,1,2)n + u(2,1,2)p
   - u(2,1,2)n >= -13
 MCLin9(2,1,2): - 13 y(1,2,2) + u(2,1,2)p - u(2,1,2)n <= -0
 MCLin10(2,1,2): 28 y(1,2,2) - v(2,1,2)p + v(2,1,2)n + u(2,1,2)p
   - u(2,1,2)n <= 28
 makespan(0): C - x(0,0) >= 1
 makespan(1): C - x(1,2) >= 7
 makespan(2): C - x(2,0) >= 2
 cut_clique_0: 0.1428571428571428 x(0,1) + 0.1428571428571428 x(2,1) >= 1
 cut_clique_1: 0.0666666666666667 x(0,1) + 0.0380952380952381 x(1,1)
   + 0.0666666666666667 x(2,1) >= 1
Bounds
 C <= 35
 14 <= x(0,0) <= 34
 y(0,1,0) <= 1
 y(1,0,0) <= 1
 v(0,1,0)p <= 27
 v(0,1,0)n <= 14
 v(1,0,0)p <= 10
 v(1,0,0)n <= 31
 u(0,1,0)p <= 350
 u(0,1,0)n <= 350
 u(1,0,0)p <= 350
 u(1,0,0)n <= 350
 y(0,2,0) <= 1
 y(2,0,0) <= 1
 v(0,2,0)p <= 19
 v(0,2,0)n <= 21
 v(2,0,0)p <= 18
 v(2,0,0)n <= 22
 u(0,2,0)p <= 350
 u(0,2,0)n <= 350
 u(2,0,0)p <= 350
 u(2,0,0)n <= 350
 4 <= x(1,0) <= 25
 y(1,2,0) <= 1
 y(2,1,0) <= 1
 v(1,2,0)p <= 10
 v(1,2,0)n <= 31
 v(2,1,0)p <= 26
 v(2,1,0)n <= 15
 u(1,2,0)p <= 350
 u(1,2,0)n <= 350
 u(2,1,0)p <= 350
 u(2,1,0)n <= 350
 13 <= x(2,0) <= 33
 x(0,1) <= 20
 y(0,1,1) <= 1
 y(1,0,1) <= 1
 v(0,1,1)p <= 16
 v(0,1,1)n <= 25
 v(1,0,1)p <= 14
 v(1,0,1)n <= 27
 u(0,1,1)p <= 350
 u(0,1,1)n <= 350
 u(1,0,1)p <= 350
 u(1,0,1)n <= 350
 y(0,2,1) <= 1
 y(2,0,1) <= 1
 v(0,2,1)p <= 13
 v(0,2,1)n <= 27
 v(2,0,1)p <= 13
 v(2,0,1)n <= 27
 u(0,2,1)p <= 350
 u(0,2,1)n <= 350
 u(2,0,1)p <= 350
 u(2,0,1)n <= 350
 x(1,1) <= 21
 y(1,2,1) <= 1
 y(2,1,1) <= 1
 v(1,2,1)p <= 14
 v(1,2,1)n <= 27
 v(2,1,1)p <= 16
 v(2,1,1)n <= 25
 u(1,2,1)p <= 350
 u(1,2,1)n <= 350
 u(2,1,1)p <= 350
 u(2,1,1)n <= 350
 x(2,1) <= 20
 7 <= x(0,2) <= 27
 y(0,1,2) <= 1
 y(1,0,2) <= 1
 v(0,1,2)p <= 13
 v(0,1,2)n <= 28
 v(1,0,2)p <= 14
 v(1,0,2)n <= 27
 u(0,1,2)p <= 350
 u(0,1,2)n <= 350
 u(1,0,2)p <= 350
 u(1,0,2)n <= 350
 y(0,2,2) <= 1
 y(2,0,2) <= 1
 v(0,2,2)p <= 14
 v(0,2,2)n <= 26
 v(2,0,2)p <= 13
 v(2,0,2)n <= 27
 u(0,2,2)p <= 350
 u(0,2,2)n <= 350
 u(2,0,2)p <= 350
 u(2,0,2)n <= 350
 7 <= x(1,2) <= 28
 y(1,2,2) <= 1
 y(2,1,2) <= 1
 v(1,2,2)p <= 15
 v(1,2,2)n <= 26
 v(2,1,2)p <= 13
 v(2,1,2)n <= 28
 u(1,2,2)p <= 350
 u(1,2,2)n <= 350
 u(2,1,2)p <= 350
 u(2,1,2)n <= 350
 7 <= x(2,2) <= 27
End
